Cost: 1406
0-30-29-22-20-21-31-18-19-17-11-8-10-9-32-7-4-6-5-0
0-2-3-33-13-12-14-15-16-24-23-26-27-28-25-1-0
Cost: 1406
0-29-22-20-21-31-18-19-17-11-8-10-9-32-7-4-6-5-30-0
0-2-3-33-13-12-14-15-16-25-24-23-26-27-28-1-0
Cost: 1422
0-30-29-25-24-23-17-11-31-18-19-21-20-22-26-27-28-0
0-2-5-6-4-32-7-8-10-9-13-12-14-15-16-33-1-3-0
Cost: 1422
0-30-29-25-24-23-17-11-31-18-19-21-20-22-26-27-28-0
0-2-5-6-4-32-7-8-10-9-13-12-14-15-16-33-1-3-0
Cost: 1422
0-30-29-25-24-23-17-11-31-18-19-21-20-22-26-27-28-0
0-2-5-6-4-32-7-8-10-9-13-12-14-15-16-33-1-3-0
Cost: 1406
0-2-3-33-13-12-14-15-16-25-24-23-26-27-28-1-0
0-29-22-20-21-31-18-19-17-11-8-10-9-32-7-4-6-5-30-0
Cost: 1406
0-2-3-33-13-12-14-15-16-24-23-26-27-28-25-1-0
0-29-22-20-21-31-18-19-17-11-8-10-9-32-7-4-6-5-30-0
Cost: 1406
0-2-3-33-13-12-14-15-16-25-24-23-27-28-29-1-0
0-30-26-22-20-21-31-18-19-17-11-8-10-9-32-7-4-6-5-0
Cost: 1406
0-2-3-33-13-12-14-15-16-25-24-23-27-28-29-1-0
0-30-26-22-20-21-31-18-19-17-11-8-10-9-32-7-4-6-5-0
Cost: 1406
0-2-3-33-13-12-14-15-16-25-24-23-27-28-29-1-0
0-30-26-22-20-21-31-18-19-17-11-8-10-9-32-7-4-6-5-0
Cost: 1406
0-2-3-33-13-12-14-15-16-25-24-23-27-28-29-1-0
0-30-26-22-20-21-31-18-19-17-11-8-10-9-32-7-4-6-5-0
Cost: 1422
0-2-5-6-4-32-7-8-10-9-13-12-14-15-16-33-1-3-0
0-30-29-25-24-23-17-11-31-18-19-21-20-22-26-27-28-0
Cost: 1406
0-30-29-22-20-21-31-18-19-17-11-8-10-9-32-7-4-6-5-0
0-2-3-33-13-12-14-15-16-25-24-23-26-27-28-1-0
Cost: 1406
0-2-3-33-13-12-14-15-16-24-23-27-28-29-25-1-0
0-30-26-22-20-21-31-18-19-17-11-8-10-9-32-7-4-6-5-0
Cost: 1406
0-26-22-20-21-31-18-19-17-11-8-10-9-32-7-4-6-5-30-0
0-2-3-33-13-12-14-15-16-24-23-27-28-29-25-1-0
Cost: 1422
0-2-5-6-4-32-7-8-10-9-13-12-14-15-16-33-1-3-0
0-30-29-25-24-23-17-11-31-18-19-21-20-22-26-27-28-0
Cost: 1422
0-2-5-6-4-32-7-8-10-9-13-12-14-15-16-33-1-3-0
0-30-29-25-24-23-17-11-31-18-19-21-20-22-26-27-28-0
Cost: 1422
0-2-5-6-4-32-7-8-10-9-13-12-14-15-16-33-1-3-0
0-30-29-25-24-23-17-11-31-18-19-21-20-22-26-27-28-0
Cost: 1422
0-2-5-6-4-32-7-8-10-9-13-12-14-15-16-33-1-3-0
0-30-29-25-24-23-17-11-31-18-19-21-20-22-26-27-28-0
Cost: 1406
0-2-3-33-13-12-14-15-16-25-24-23-26-27-28-1-0
0-29-22-20-21-31-18-19-17-11-8-10-9-32-7-4-6-5-30-0
Cost: 1406
0-2-3-33-13-12-14-15-16-25-24-23-27-28-29-1-0
0-26-22-20-21-31-18-19-17-11-8-10-9-32-7-4-6-5-30-0
Cost: 1406
0-2-3-33-13-12-14-15-16-24-23-27-28-29-25-1-0
0-30-26-22-20-21-31-18-19-17-11-8-10-9-32-7-4-6-5-0
Cost: 1406
0-2-3-33-13-12-14-15-16-24-23-27-28-29-25-1-0
0-30-26-22-20-21-31-18-19-17-11-8-10-9-32-7-4-6-5-0
Cost: 1406
0-26-22-20-21-31-18-19-17-11-8-10-9-32-7-4-6-5-30-0
0-2-3-33-13-12-14-15-16-24-23-27-28-29-25-1-0
Cost: 1406
0-26-22-20-21-31-18-19-17-11-8-10-9-32-7-4-6-5-30-0
0-2-3-33-13-12-14-15-16-24-23-27-28-29-25-1-0
Cost: 1406
0-30-29-22-20-21-31-18-19-17-11-8-10-9-32-7-4-6-5-0
0-2-3-33-13-12-14-15-16-25-24-23-26-27-28-1-0
Cost: 1406
0-26-22-20-21-31-18-19-17-11-8-10-9-32-7-4-6-5-30-0
0-2-3-33-13-12-14-15-16-24-23-27-28-29-25-1-0
Cost: 1406
0-2-3-33-13-12-14-15-16-24-23-26-27-28-25-1-0
0-30-29-22-20-21-31-18-19-17-11-8-10-9-32-7-4-6-5-0
Cost: 1406
0-2-3-33-13-12-14-15-16-25-24-23-27-28-29-1-0
0-26-22-20-21-31-18-19-17-11-8-10-9-32-7-4-6-5-30-0
Cost: 1406
0-2-3-33-13-12-14-15-16-24-23-27-28-29-25-1-0
0-30-26-22-20-21-31-18-19-17-11-8-10-9-32-7-4-6-5-0
Cost: 1406
0-2-3-33-13-12-14-15-16-24-23-27-28-29-25-1-0
0-30-26-22-20-21-31-18-19-17-11-8-10-9-32-7-4-6-5-0
Cost: 1406
0-2-3-33-13-12-14-15-16-24-23-27-28-29-25-1-0
0-30-26-22-20-21-31-18-19-17-11-8-10-9-32-7-4-6-5-0
Cost: 1427
0-2-3-33-13-5-6-4-32-7-8-10-9-12-14-15-16-1-0
0-30-29-25-24-23-17-11-31-18-19-21-20-22-26-27-28-0
Cost: 1417
0-2-3-33-13-12-14-15-16-1-25-24-23-26-27-28-0
0-30-29-22-20-21-31-18-19-17-11-8-10-9-32-7-4-6-5-0
Cost: 1406
0-29-22-20-21-31-18-19-17-11-8-10-9-32-7-4-6-5-30-0
0-2-3-33-13-12-14-15-16-25-24-23-26-27-28-1-0
Cost: 1406
0-29-22-20-21-31-18-19-17-11-8-10-9-32-7-4-6-5-30-0
0-2-3-33-13-12-14-15-16-25-24-23-26-27-28-1-0
Cost: 1406
0-29-22-20-21-31-18-19-17-11-8-10-9-32-7-4-6-5-30-0
0-2-3-33-13-12-14-15-16-25-24-23-26-27-28-1-0
